Route #1: 1 18 73 59 39 70 44 68 22 25 2 48 31 1
Route #2: 1 53 57 13 35 23 72 9 50 1
Route #3: 1 76 38 71 30 58 74 32 1
Route #4: 1 16 52 46 47 77 33 1
Route #5: 1 3 64 6 66 28 17 11 1
Route #6: 1 56 34 14 49 40 75 29 20 10 1
Route #7: 1 41 24 45 78 27 12 65 26 19 61 1
Route #8: 1 51 62 5 60 36 42 15 37 1
Route #9: 1 43 67 7 63 69 54 1
Route #10: 1 8 4 55 21 1
cost 1510
